# 3d Cu minimization MS at T = 0K

units		metal
boundary	s s p

atom_style	atomic

lattice		fcc 3.615 
region		box block 0 6.0 0 6.0 0 6
create_box	3 box
create_atoms	1 box

pair_style	eam/alloy
pair_coeff	* * Cu01.eam.alloy Cu Cu Cu

neighbor	0.3 bin
neigh_modify	delay 5

thermo		25
timestep	0.001

variable	pe equal pe
compute		pea all pe/atom

fix		1 all nve
dump		2 all custom 10 r*.xyz id type x y z c_pea
dump_modify	2 sort id
minimize	1.0e-12 1.0e-12 1000 10000
undump		2
